c Random generated cnf formula, satisfiable: false
p cnf 10 50
2 5 7 0
-1 -8 -10 0
-4 -9 8 0
-6 -8 -4 0
6 -4 -1 0
-8 4 -5 0
8 7 2 0
4 -8 -10 0
9 -7 -2 0
10 9 5 0
-8 -7 -5 0
2 9 1 0
1 -10 3 0
-10 5 -9 0
-2 -1 3 0
-8 7 9 0
1 -2 8 0
-6 3 -2 0
8 -10 -9 0
1 -8 6 0
10 3 -8 0
-8 4 -1 0
3 -5 7 0
-1 5 -8 0
6 -9 -7 0
10 -3 -1 0
-1 9 6 0
-3 -5 10 0
4 -8 3 0
8 -10 -2 0
2 -4 -6 0
-8 1 7 0
-1 -3 9 0
-9 6 3 0
-7 6 5 0
-6 -5 4 0
6 5 -1 0
7 -4 3 0
-10 -5 3 0
6 -1 5 0
-10 -8 1 0
1 8 2 0
4 -1 5 0
-3 9 1 0
-4 10 2 0
-10 -3 -4 0
10 1 9 0
10 -9 -6 0
4 6 7 0
9 8 10 0
